language ESSENCE' 1.0
letting values be [[0, 4, 8, 5, 1, 0, 0, 6, 9], [1, 0, 0, 0, 6, 9, 5, 4, 8], [0, 0, 0, 0, 7, 0, 0, 3, 0], [0, 1, 0, 0, 3, 0, 6, 0, 0], [7, 0, 0, 0, 9, 2, 8, 0, 4], [0, 0, 9, 6, 4, 7, 0, 1, 3], [5, 7, 4, 3, 0, 1, 9, 8, 6], [3, 2, 1, 9, 8, 6, 4, 0, 0], [9, 0, 6, 7, 0, 4, 3, 0, 0]]